(set-logic HORN)

(declare-fun |invariant| ( Int Bool Int Bool Int Int Int Int Int Int Int Int Bool Int ) Bool)

(assert
  (forall ( (A Int) (B Int) (C Int) (D Int) (E Bool) (F Int) (G Int) (H Int) (I Bool) (J Int) (K Int) (L Int) (M Int) (N Bool) ) 
    (=>
      (and
        (and (= K (- 1))
     (= H 0)
     (= G 0)
     (= F (- 1))
     (= C 0)
     (= B 0)
     (= A 0)
     (not (<= 20 J))
     (not (<= 20 D))
     (<= 0 J)
     (<= 0 D)
     (or (= M 0) (= M 1) (= M 2))
     (or (= B 0) (= B 1) (= B 2))
     (or (= A 0) (= A 1) (= A 2))
     (or (= G 0) (= G 1))
     (not I)
     (not E)
     (= L 0))
      )
      (invariant C E B I M A G L D J F K N H)
    )
  )
)
(assert
  (forall ( (A Int) (B Bool) (C Int) (D Bool) (E Int) (F Int) (G Int) (H Int) (I Int) (J Int) (K Int) (L Int) (M Bool) (N Int) (O Int) (P Int) (Q Int) (R Int) (S Int) (T Bool) (U Bool) (V Int) (W Bool) (X Int) (Y Int) (Z Int) (A1 Int) (B1 Int) ) 
    (=>
      (and
        (invariant A B C D E F G H I J K L M N)
        (let ((a!1 (and (or B (not M) (not (= E 1)) (not (= K (- 1)))) (= S K) (= T B)))
      (a!2 (or (and D (= O 2) (= P 0) (= Q 0) (= F 1))
               (and (= O 0) (= P 0) (= Q 0) (not (= E 1)) (= F 0))
               (and (= O 0) (= P 2) (= Q 0) (= E 2) (= F 2))
               (and (= O 1) (= P 1) (= Q 0) (= E 1) (= F 0))
               (and (= O 2) (= P 0) (= Q 0) (not (= E 2)) (= F 2))
               (and (not D) (<= 1 A) (= O 0) (= P 2) (= Q 0) (= F 1))
               (and (not D)
                    (not (<= 1 A))
                    (= O 1)
                    (= P 1)
                    (= Q (+ 1 A))
                    (= F 1))))
      (a!4 (and (or (not B) (<= N 0) (not (= L (- 1)))) (= Z L)))
      (a!6 (or (and (not W) (= V 0) (= X 0) (not (= C 1)) (= G 0))
               (and (not W) (= V 0) (= X 0) (= C 2) (= G 1))
               (and W (not (<= X 0)) (not (<= 5 X)) (= V 1) (= C 1) (= G 0))
               (and W
                    (not (<= X 0))
                    (not (<= 5 X))
                    (= V 1)
                    (not (= C 2))
                    (= G 1)))))
(let ((a!3 (and (or a!1 (and (not B) M T (not U) (= E 1) (= K (- 1)) (= S H)))
                a!2
                (<= R (+ 20 H))
                (<= H (+ (- 20) R))
                (= V G)
                (= X N)
                (= Y J)
                (= Z L)
                (= H I)
                (= W D)))
      (a!5 (or a!4 (and B (not (<= N 0)) (= Z H) (= L (- 1))))))
(let ((a!7 (or a!3
               (and a!5
                    a!6
                    (<= Y (+ 20 H))
                    (<= H (+ (- 20) Y))
                    (= O F)
                    (= P C)
                    (= Q A)
                    (= R I)
                    (= H J)
                    (= S K)
                    (= T B)
                    (= U M)))))
(let ((a!8 (or (and a!7 (= A1 H))
               (and (or (= A1 I) (= A1 J))
                    (<= A1 I)
                    (<= A1 J)
                    (not (<= I H))
                    (not (<= J H))
                    (= O F)
                    (= P C)
                    (= Q A)
                    (= R I)
                    (= V G)
                    (= X N)
                    (= Y J)
                    (= Z L)
                    (= S K)
                    (= W D)
                    (= T B)
                    (= U M)))))
  (and (or (= F 0) (= F 1) (= F 2))
       (or (= E 0) (= E 1) (= E 2))
       (or (= C 0) (= C 1) (= C 2))
       (or (= P 0) (= P 1) (= P 2))
       (or (= O 0) (= O 1) (= O 2))
       (or (= G 0) (= G 1))
       (or (= V 0) (= V 1))
       a!8
       (or (= B1 0) (= B1 1) (= B1 2)))))))
      )
      (invariant Q T P W B1 O V A1 R Y S Z U X)
    )
  )
)
(assert
  (forall ( (A Int) (B Bool) (C Int) (D Bool) (E Int) (F Int) (G Int) (H Int) (I Int) (J Int) (K Int) (L Int) (M Bool) (N Int) ) 
    (=>
      (and
        (invariant A B C D E F G H I J K L M N)
        (<= K (+ (- 41) L))
      )
      false
    )
  )
)

(check-sat)
(exit)
